# 3d Lennard-Jones melt

units		electron
atom_style	atomic

lattice		fcc 7.60
region		box block 0 7.6 0 7.6 0 7.6
create_box	1 box
create_atoms	1 box
mass		1 372273.3

velocity	all create 300.0  87287 loop geom

pair_style	lj/cut 15.0
pair_coeff	1 1 1.0 1.0 3.8

neighbor	0.3 bin
neigh_modify	delay 0 every 20 check no

fix		1 all nve

timestep        1.0    # in femtoseconds
dump            2 all custom 100 dump.lammpstrj id type x y z #xhi xlo yhi ylo
#run		1000
minimize        0.0 1.0e-8 1000 100000 

