&inputpp
  prefix = 'x',
  outdir = './',
  pseudo_dir = './',
  psfile(1) = 'C.rel-pbe-n-kjpaw_psl.0.1.UPF',
  psfile(2) = 'H.rel-pbe-kjpaw_psl.0.1.UPF',
  single_file = .FALSE.,
  ascii = .TRUE.,
  uspp_spsi = .FALSE.,
/
