&CONTROL
  calculation = 'md',
  dt = 20.67055,
  nstep = 1000,
  pseudo_dir = '/util/academic/espresso/6.2.1/pseudopotentials/upf_files/',
  outdir = './',
  prefix = 'x0',
  disk_io = 'low',
/

&SYSTEM
  ibrav = 0,
  nat = 8,
  ntyp = 1,
  nspin = 1,
  nbnd = 60,
  ecutwfc = 40,
  occupations = 'smearing',
  smearing = 'gaussian'
  degauss = 0.05
  nosym = .true.,
/

&ELECTRONS
  electron_maxstep = 100,
  conv_thr = 1.D-8,
  mixing_beta = 0.35,
/


&IONS
  ion_dynamics = 'verlet',
  pot_extrapolation='second-order'
  wfc_extrapolation='second-order'
  ion_temperature = 'andersen',
  tempw = 300.00 ,
  nraise = 1,
/


ATOMIC_SPECIES
Si  28.086 Si.pbesol-n-kjpaw_psl.0.1.UPF

K_POINTS automatic
 3 3 3 0 0 0 

CELL_PARAMETERS (angstrom)
    5.4306998253         0.0000000000         0.0000000000
    0.0000000000         5.4306998253         0.0000000000
    0.0000000000         0.0000000000         5.4306998253

ATOMIC_POSITIONS (angstrom)
Si      -0.218308976  -0.264057604  -1.307846064
Si      -0.359458309   3.225570594   2.859542526
Si       2.519064301   2.546588340   0.533782276
Si       3.244898686  -0.426385143   2.948319698
Si       3.627262771   1.740186292   3.880868374
Si       1.673832390   1.617437046   2.636295205
Si       1.716400788   3.622934432   3.906396809
Si       4.088407826   4.229825520   0.834740653

