&CONTROL
  calculation = 'md',
  dt = 20.67055,
  nstep = 1000,
  pseudo_dir = '/gpfs/scratch/brendan/PP/',
  outdir = './',
  prefix = 'x0',
  disk_io = 'low',
/

&SYSTEM
  ibrav = 0,
  nat = 8,
  ntyp = 1,
  nspin = 1,
  ecutwfc = 40,
  ecutrho = 400,
  occupations = 'smearing',
  smearing = 'gaussian'
  degauss = 0.02
  nosym = .true.,
/

&ELECTRONS
  electron_maxstep = 100,
  conv_thr = 1.D-8,
  mixing_beta = 0.35,
/


&IONS
  ion_dynamics = 'verlet',
  pot_extrapolation='second-order',
  wfc_extrapolation='second-order',
  ion_temperature = 'andersen',
  tempw = 300.00 ,
  nraise = 1,
/


ATOMIC_SPECIES
Si  28.086 Si.pbe-n-kjpaw_psl.0.1.UPF

K_POINTS automatic
 5 5 5 0 0 0

CELL_PARAMETERS (angstrom)
    5.4306998253         0.0000000000         0.0000000000
    0.0000000000         5.4306998253         0.0000000000
    0.0000000000         0.0000000000         5.4306998253

ATOMIC_POSITIONS (angstrom)
Si       0.078719844  -0.017337626  -0.030957134
Si      -0.046812461   2.806220279   2.683019242
Si       2.716879201   2.574777845   0.040045062
Si       2.703224615   0.051184285   2.756143944
Si       4.110303417   1.375284685   4.001938771
Si       1.271352338   1.356419619   1.412811366
Si       1.433403881   3.996890075   4.089203401
Si       4.025028641   4.148660314   1.339894823

