&CONTROL
  calculation = 'md',
  dt = 20.67055,
  nstep = 1000,
  pseudo_dir = '/util/academic/espresso/6.2.1/pseudopotentials/upf_files/',
  outdir = './',
  prefix = 'x0',
  disk_io = 'low',
/

&SYSTEM
  ibrav = 0,
  nat = 8,
  ntyp = 1,
  nspin = 1,
  nbnd = 60,
  ecutwfc = 50,
  ecutrho = 500,
  occupations = 'fixed',
  nosym = .true.,
/

&ELECTRONS
  electron_maxstep = 100,
  conv_thr = 1.D-9,
  mixing_beta = 0.7,
/


&IONS
  ion_dynamics = 'verlet',
  pot_extrapolation='second-order'
  wfc_extrapolation='second-order'
  ion_temperature = 'andersen',
  tempw = 300.00 ,
  nraise = 1,
/


ATOMIC_SPECIES
Si  28.086 Si.pbesol-n-kjpaw_psl.0.1.UPF

K_POINTS gamma

CELL_PARAMETERS (angstrom)
    5.4306998253         0.0000000000         0.0000000000
    0.0000000000         5.4306998253         0.0000000000
    0.0000000000         0.0000000000         5.4306998253

ATOMIC_POSITIONS (angstrom)
Si     0.000000000         0.000000000         0.000000000
Si     0.000000000         2.715349913         2.715349913
Si     2.715349913         2.715349913         0.000000000
Si     2.715349913         0.000000000         2.715349913
Si     4.073024869         1.357674956         4.073024869
Si     1.357674956         1.357674956         1.357674956
Si     1.357674956         4.073024869         4.073024869
Si     4.073024869         4.073024869         1.357674956

