&inputpp
  prefix = 'x0',
  outdir = './',
  pseudo_dir = './',
  psfile(1) = 'Li.pbe-sl-rrkjus_psl.1.0.0.UPF',
  psfile(2) = 'H.pbe-rrkjus_psl.1.0.0.UPF',
  single_file = .FALSE.,
  ascii = .TRUE.,
  uspp_spsi = .FALSE.,
/
