&CONTROL
  calculation = 'scf',
  pseudo_dir = '/util/academic/espresso/6.2.1/pseudopotentials/upf_files/',
  outdir = './',
  prefix = 'x0',
  disk_io = 'low',
  wf_collect = .true.
/

&SYSTEM
  ibrav = 0,
  nat = 8,
  ntyp = 1,
  nspin = 1,
  nbnd = 60,
  ecutwfc = 50,
  occupations = 'fixed',
  nosym = .true.,
/

&ELECTRONS
  electron_maxstep = 100,
  conv_thr = 1.D-9,
  mixing_beta = 0.7,
/

ATOMIC_SPECIES
Si  28.086 Si.pbesol-n-rrkjus_psl.0.1.UPF 

K_POINTS gamma

CELL_PARAMETERS (angstrom)
    5.4306998253         0.0000000000         0.0000000000
    0.0000000000         5.4306998253         0.0000000000
    0.0000000000         0.0000000000         5.4306998253


