&CONTROL
  calculation = 'scf',
  pseudo_dir = '/util/academic/espresso/6.2.1/pseudopotentials/upf_files/',
  outdir = './',
  prefix = 'x0',
  disk_io = 'low',
  wf_collect = .true.
/

&SYSTEM
  ibrav = 0,
  nat = 8,
  ntyp = 1,
  nbnd = 60,
  ecutwfc = 40,
  ecutrho = 400,
  nspin = 1,
  !starting_magnetization(1) = 0.1,
  occupations = 'smearing',
  degauss = 0.02,
  nosym = .true.,
/

&ELECTRONS
  electron_maxstep = 100,
  conv_thr = 1.D-8,
  mixing_beta = 0.35,
  diago_full_acc = .TRUE.,
/

ATOMIC_SPECIES
Si  28.086 Si.pbe-n-kjpaw_psl.0.1.UPF

K_POINTS gamma

CELL_PARAMETERS (angstrom)
    5.4306998253         0.0000000000         0.0000000000
    0.0000000000         5.4306998253         0.0000000000
    0.0000000000         0.0000000000         5.4306998253


