&FORCE_EVAL
  &DFT
    WFN_RESTART_FILE_NAME Si_QD_xtb-RESTART.wfn
    &QS
      METHOD xTB
      &xTB
        DO_EWALD  T
        CHECK_ATOMIC_CHARGES  T
        COULOMB_INTERACTION T
        &PARAMETER
          DISPERSION_PARAMETER_FILE /home/97425008/project_Si_QD/step2_0.5fs/dftd3.dat
          PARAM_FILE_NAME /home/97425008/project_Si_QD/step2_0.5fs/xTB_parameters
        &END PARAMETER
      &END
      &DISTRIBUTION
        BASIC_OPTIMIZATION .FALSE.
        BASIC_SPATIAL_OPTIMIZATION .TRUE.
      &END
    &END QS
    &POISSON
      POISSON_SOLVER PERIODIC !MT
      PERIODIC XYZ !NONE
    &END
    &SCF
      SCF_GUESS ATOMIC !MOPAC
      EPS_SCF 1.e-8
      &OT
         PRECONDITIONER FULL_SINGLE_INVERSE
         MINIMIZER DIIS
      &END
!      &OUTER_SCF
!         MAX_SCF  30
!         EPS_SCF 1.e-8
!      &END
      MAX_SCF  50
    &END SCF
  &END DFT
  &SUBSYS
    &CELL
      ABC 50.0 50.0 50.0
      PERIODIC XYZ
    &END CELL
    &TOPOLOGY
      COORD_FILE_NAME Si329H172.xyz 
      COORD_FILE_FORMAT XYZ
      &CENTER_COORDINATES T
      &END
    &END
   &END SUBSYS
&END FORCE_EVAL
&GLOBAL
  PROJECT_NAME Si_QD_xtb
  RUN_TYPE ENERGY
  PRINT_LEVEL LOW
&END GLOBAL
