&CONTROL
  calculation = 'scf',
  pseudo_dir = '/mnt/c/cygwin/home/Alexey-user/Programming/Project_libra/notebooks/Example12_scan/PP/',
  outdir = './',
  prefix = 'x0',
  disk_io = 'low',
  wf_collect = .true.
/

&SYSTEM
  ibrav = 0,
  celldm(1) = 1.89,
  nat = 2,
  ntyp = 2,
  nspin = 2,
  starting_magnetization(1) = 0.1,
  nbnd = 10,
  ecutwfc = 40,
  tot_charge = 0.0,
  occupations = 'smearing',
  smearing = 'gaussian',
  degauss = 0.005,
  nosym = .true.,
/

&ELECTRONS
  electron_maxstep = 300,
  conv_thr = 1.D-5,
  mixing_beta = 0.45,
/


ATOMIC_SPECIES
 Li 6.00  Li.pbe-sl-rrkjus_psl.1.0.0.UPF
 H  1.00  H.pbe-rrkjus_psl.1.0.0.UPF


K_POINTS automatic
 1 1 1 0 0 0

CELL_PARAMETERS (alat=  1.89000000)
  20.000000000   0.000000000   0.000000000
   0.000000000   8.000000000   0.000000000
   0.000000000   0.000000000   8.000000000

